43
3 97 110 54 
2 76 45 
2 10 49 
3 84 34 26 
3 115 51 56 
2 46 22 
3 90 73 21 
2 4 106 
3 61 77 83 
3 119 91 5 
2 70 109 
3 23 2 100 
3 89 29 3 
3 83 72 78 
3 111 35 15 
3 30 114 44 
3 75 24 69 
2 64 55 
3 25 116 41 
3 13 66 20 
3 107 48 73 
3 1 93 95 
3 16 68 12 
3 82 50 47 
2 79 33 
3 54 39 105 
3 14 74 103 
3 113 37 99 
3 39 118 96 
3 32 58 59 
3 65 107 67 
3 8 28 80 
3 53 7 92 
3 71 87 102 
3 104 98 36 
3 81 40 9 
3 21 52 57 
2 85 94 
3 43 62 117 
3 6 86 11 
2 108 19 
3 17 101 57 
3 112 38 60 
